pair_coeff 11 11     0.109     3.150
pair_coeff 12 12     0.087     2.940
pair_coeff 13 13     0.016     2.229
