pair_style  lj/cut/tip4p/long 1 2 1 1 0.1546 10.5 10.5
pair_modify     mix arithmetic
pair_modify tail yes
kspace_style    pppm/tip4p ${tol}

read_data data.water

bond_style  harmonic
angle_style harmonic
dihedral_style  none
improper_style  none

bond_coeff  1 553.0000 0.9572
angle_coeff     1 55.0  104.52

